NAME          
ROWS
 N  OBJ
 L  c1
 L  c2
 L  c3
 L  c4
COLUMNS
    MARKER    'MARKER'                 'INTORG'
    x[1]      c1        6
    x[1]      c2        154
    x[1]      c3        704
    x[1]      c4        314
    x[1]      OBJ       -417
    x[2]      c1        771
    x[2]      c2        110
    x[2]      c3        394
    x[2]      c4        605
    x[2]      OBJ       -331
    x[3]      c1        959
    x[3]      c2        835
    x[3]      c3        715
    x[3]      c4        673
    x[3]      OBJ       -745
    x[4]      c1        916
    x[4]      c2        580
    x[4]      c3        613
    x[4]      c4        987
    x[4]      OBJ       -274
    x[5]      c1        520
    x[5]      c2        301
    x[5]      c3        900
    x[5]      c4        897
    x[5]      OBJ       -323
    x[6]      c1        184
    x[6]      c2        963
    x[6]      c3        904
    x[6]      c4        213
    x[6]      OBJ       -370
    x[7]      c1        549
    x[7]      c2        218
    x[7]      c3        19
    x[7]      c4        817
    x[7]      OBJ       -798
    x[8]      c1        623
    x[8]      c2        264
    x[8]      c3        86
    x[8]      c4        401
    x[8]      OBJ       -101
    x[9]      c1        268
    x[9]      c2        54
    x[9]      c3        781
    x[9]      c4        717
    x[9]      OBJ       -33
    x[10]     c1        926
    x[10]     c2        661
    x[10]     c3        912
    x[10]     c4        754
    x[10]     OBJ       -158
    x[11]     c1        830
    x[11]     c2        994
    x[11]     c3        39
    x[11]     c4        896
    x[11]     OBJ       -764
    x[12]     c1        132
    x[12]     c2        860
    x[12]     c3        893
    x[12]     c4        833
    x[12]     OBJ       -512
    x[13]     c1        691
    x[13]     c2        591
    x[13]     c3        85
    x[13]     c4        166
    x[13]     OBJ       -612
    x[14]     c1        890
    x[14]     c2        356
    x[14]     c3        801
    x[14]     c4        807
    x[14]     OBJ       -159
    x[15]     c1        279
    x[15]     c2        151
    x[15]     c3        81
    x[15]     c4        135
    x[15]     OBJ       -141
    x[16]     c1        361
    x[16]     c2        990
    x[16]     c3        817
    x[16]     c4        483
    x[16]     OBJ       -399
    x[17]     c1        189
    x[17]     c2        895
    x[17]     c3        251
    x[17]     c4        812
    x[17]     OBJ       -853
    x[18]     c1        568
    x[18]     c2        892
    x[18]     c3        111
    x[18]     c4        309
    x[18]     OBJ       -963
    x[19]     c1        844
    x[19]     c2        382
    x[19]     c3        534
    x[19]     c4        87
    x[19]     OBJ       -311
    x[20]     c1        455
    x[20]     c2        745
    x[20]     c3        146
    x[20]     c4        138
    x[20]     OBJ       -567
    x[21]     c1        387
    x[21]     c2        829
    x[21]     c3        363
    x[21]     c4        168
    x[21]     OBJ       -796
    x[22]     c1        38
    x[22]     c2        446
    x[22]     c3        219
    x[22]     c4        222
    x[22]     OBJ       -968
    x[23]     c1        426
    x[23]     c2        674
    x[23]     c3        462
    x[23]     c4        597
    x[23]     OBJ       -577
    x[24]     c1        21
    x[24]     c2        483
    x[24]     c3        183
    x[24]     c4        227
    x[24]     OBJ       -642
    x[25]     c1        418
    x[25]     c2        624
    x[25]     c3        300
    x[25]     c4        68
    x[25]     OBJ       -330
RHS
    rhs       c1        6126
    rhs       c2        7026
    rhs       c3        5656
    rhs       c4        6163
RANGES
BOUNDS
 BV bounds    x[1]
 BV bounds    x[2]
 BV bounds    x[3]
 BV bounds    x[4]
 BV bounds    x[5]
 BV bounds    x[6]
 BV bounds    x[7]
 BV bounds    x[8]
 BV bounds    x[9]
 BV bounds    x[10]
 BV bounds    x[11]
 BV bounds    x[12]
 BV bounds    x[13]
 BV bounds    x[14]
 BV bounds    x[15]
 BV bounds    x[16]
 BV bounds    x[17]
 BV bounds    x[18]
 BV bounds    x[19]
 BV bounds    x[20]
 BV bounds    x[21]
 BV bounds    x[22]
 BV bounds    x[23]
 BV bounds    x[24]
 BV bounds    x[25]
ENDATA
